c 3QBF problem of the form. \exists C \forall In \exists temp.  (Correct(C,in,temp)) 
c vars listed as UV are the C vars; vars listed as EV are the In vars; vars not listed are temps.
c H__0_0
c UV 2
c H__0_1
c UV 3
c H__0_2
c UV 4
c H__0_3
c UV 5
c H__0_4
c UV 6
c H__0_5
c UV 7
c H__0_6
c UV 8
c H__0_7
c UV 9
c H__0_8
c UV 10
c H__0_9
c UV 11
c H__0_10
c UV 12
c H__0_11
c UV 13
c H__0_12
c UV 14
c H__0_13
c UV 15
c H__0_14
c UV 16
c H__0_15
c UV 17
c in_10_7d_idx_0_0
c EV 18
c in_10_7d_idx_1_0
c EV 19
c in_10_7d_idx_2_0
c EV 20
c in_10_7d_idx_3_0
c EV 21
c in_10_7d_idx_4_0
c EV 22
c in_10_7d_idx_5_0
c EV 23
c in_10_7d_idx_6_0
c EV 24
c in_10_7d_idx_7_0
c EV 25
c in_10_7d_idx_8_0
c EV 26
c in_10_7d_idx_9_0
c EV 27
c in_10_7d_idx_10_0
c EV 28
c in_10_7d_idx_11_0
c EV 29
c in_10_7d_idx_12_0
c EV 30
c in_10_7d_idx_13_0
c EV 31
c in_10_7d_idx_14_0
c EV 32
c in_10_7d_idx_15_0
c EV 33
c 417 original clauses expand to 417 real clauses plus 2 unary clauses
c max 2 3 4 5 6 7 8 9 10 11 12 13 14 15 16 17 0
c ind 18 19 20 21 22 23 24 25 26 27 28 29 30 31 32 33 0
p cnf 124 419
34 0
-124 0
2 -18 35 0
-2 -35 0
18 -35 0
-18 -36 0
2 18 -36 0
2 -18 -36 0
-2 18 36 0
-2 18 36 0
3 -19 37 0
-3 -37 0
19 -37 0
36 37 -38 0
36 37 -38 0
-36 -37 38 0
36 -37 38 0
-36 38 0
-35 -39 0
35 38 -39 0
-35 38 -39 0
35 -38 39 0
35 -38 39 0
-19 -40 0
3 19 -40 0
3 -19 -40 0
-3 19 40 0
-3 19 40 0
35 40 -41 0
35 40 -41 0
-35 -40 41 0
35 -40 41 0
-35 41 0
-39 -42 0
39 41 -42 0
-39 41 -42 0
39 -41 42 0
39 -41 42 0
4 -20 43 0
-4 -43 0
20 -43 0
39 43 -44 0
39 43 -44 0
-39 -43 44 0
39 -43 44 0
-39 44 0
-42 -45 0
42 44 -45 0
-42 44 -45 0
42 -44 45 0
42 -44 45 0
-20 -46 0
4 20 -46 0
4 -20 -46 0
-4 20 46 0
-4 20 46 0
42 46 -47 0
42 46 -47 0
-42 -46 47 0
42 -46 47 0
-42 47 0
-45 -48 0
45 47 -48 0
-45 47 -48 0
45 -47 48 0
45 -47 48 0
5 -21 49 0
-5 -49 0
21 -49 0
45 49 -50 0
45 49 -50 0
-45 -49 50 0
45 -49 50 0
-45 50 0
-48 -51 0
48 50 -51 0
-48 50 -51 0
48 -50 51 0
48 -50 51 0
-21 -52 0
5 21 -52 0
5 -21 -52 0
-5 21 52 0
-5 21 52 0
48 52 -53 0
48 52 -53 0
-48 -52 53 0
48 -52 53 0
-48 53 0
-51 -54 0
51 53 -54 0
-51 53 -54 0
51 -53 54 0
51 -53 54 0
6 -22 55 0
-6 -55 0
22 -55 0
51 55 -56 0
51 55 -56 0
-51 -55 56 0
51 -55 56 0
-51 56 0
-54 -57 0
54 56 -57 0
-54 56 -57 0
54 -56 57 0
54 -56 57 0
-22 -58 0
6 22 -58 0
6 -22 -58 0
-6 22 58 0
-6 22 58 0
54 58 -59 0
54 58 -59 0
-54 -58 59 0
54 -58 59 0
-54 59 0
-57 -60 0
57 59 -60 0
-57 59 -60 0
57 -59 60 0
57 -59 60 0
7 -23 61 0
-7 -61 0
23 -61 0
57 61 -62 0
57 61 -62 0
-57 -61 62 0
57 -61 62 0
-57 62 0
-60 -63 0
60 62 -63 0
-60 62 -63 0
60 -62 63 0
60 -62 63 0
-23 -64 0
7 23 -64 0
7 -23 -64 0
-7 23 64 0
-7 23 64 0
60 64 -65 0
60 64 -65 0
-60 -64 65 0
60 -64 65 0
-60 65 0
-63 -66 0
63 65 -66 0
-63 65 -66 0
63 -65 66 0
63 -65 66 0
8 -24 67 0
-8 -67 0
24 -67 0
63 67 -68 0
63 67 -68 0
-63 -67 68 0
63 -67 68 0
-63 68 0
-66 -69 0
66 68 -69 0
-66 68 -69 0
66 -68 69 0
66 -68 69 0
-24 -70 0
8 24 -70 0
8 -24 -70 0
-8 24 70 0
-8 24 70 0
66 70 -71 0
66 70 -71 0
-66 -70 71 0
66 -70 71 0
-66 71 0
-69 -72 0
69 71 -72 0
-69 71 -72 0
69 -71 72 0
69 -71 72 0
9 -25 73 0
-9 -73 0
25 -73 0
69 73 -74 0
69 73 -74 0
-69 -73 74 0
69 -73 74 0
-69 74 0
-72 -75 0
72 74 -75 0
-72 74 -75 0
72 -74 75 0
72 -74 75 0
-25 -76 0
9 25 -76 0
9 -25 -76 0
-9 25 76 0
-9 25 76 0
72 76 -77 0
72 76 -77 0
-72 -76 77 0
72 -76 77 0
-72 77 0
-75 -78 0
75 77 -78 0
-75 77 -78 0
75 -77 78 0
75 -77 78 0
10 -26 79 0
-10 -79 0
26 -79 0
75 79 -80 0
75 79 -80 0
-75 -79 80 0
75 -79 80 0
-75 80 0
-78 -81 0
78 80 -81 0
-78 80 -81 0
78 -80 81 0
78 -80 81 0
-26 -82 0
10 26 -82 0
10 -26 -82 0
-10 26 82 0
-10 26 82 0
78 82 -83 0
78 82 -83 0
-78 -82 83 0
78 -82 83 0
-78 83 0
-81 -84 0
81 83 -84 0
-81 83 -84 0
81 -83 84 0
81 -83 84 0
11 -27 85 0
-11 -85 0
27 -85 0
81 85 -86 0
81 85 -86 0
-81 -85 86 0
81 -85 86 0
-81 86 0
-84 -87 0
84 86 -87 0
-84 86 -87 0
84 -86 87 0
84 -86 87 0
-27 -88 0
11 27 -88 0
11 -27 -88 0
-11 27 88 0
-11 27 88 0
84 88 -89 0
84 88 -89 0
-84 -88 89 0
84 -88 89 0
-84 89 0
-87 -90 0
87 89 -90 0
-87 89 -90 0
87 -89 90 0
87 -89 90 0
12 -28 91 0
-12 -91 0
28 -91 0
87 91 -92 0
87 91 -92 0
-87 -91 92 0
87 -91 92 0
-87 92 0
-90 -93 0
90 92 -93 0
-90 92 -93 0
90 -92 93 0
90 -92 93 0
-28 -94 0
12 28 -94 0
12 -28 -94 0
-12 28 94 0
-12 28 94 0
90 94 -95 0
90 94 -95 0
-90 -94 95 0
90 -94 95 0
-90 95 0
-93 -96 0
93 95 -96 0
-93 95 -96 0
93 -95 96 0
93 -95 96 0
13 -29 97 0
-13 -97 0
29 -97 0
93 97 -98 0
93 97 -98 0
-93 -97 98 0
93 -97 98 0
-93 98 0
-96 -99 0
96 98 -99 0
-96 98 -99 0
96 -98 99 0
96 -98 99 0
-29 -100 0
13 29 -100 0
13 -29 -100 0
-13 29 100 0
-13 29 100 0
96 100 -101 0
96 100 -101 0
-96 -100 101 0
96 -100 101 0
-96 101 0
-99 -102 0
99 101 -102 0
-99 101 -102 0
99 -101 102 0
99 -101 102 0
14 -30 103 0
-14 -103 0
30 -103 0
99 103 -104 0
99 103 -104 0
-99 -103 104 0
99 -103 104 0
-99 104 0
-102 -105 0
102 104 -105 0
-102 104 -105 0
102 -104 105 0
102 -104 105 0
-30 -106 0
14 30 -106 0
14 -30 -106 0
-14 30 106 0
-14 30 106 0
102 106 -107 0
102 106 -107 0
-102 -106 107 0
102 -106 107 0
-102 107 0
-105 -108 0
105 107 -108 0
-105 107 -108 0
105 -107 108 0
105 -107 108 0
15 -31 109 0
-15 -109 0
31 -109 0
105 109 -110 0
105 109 -110 0
-105 -109 110 0
105 -109 110 0
-105 110 0
-108 -111 0
108 110 -111 0
-108 110 -111 0
108 -110 111 0
108 -110 111 0
-31 -112 0
15 31 -112 0
15 -31 -112 0
-15 31 112 0
-15 31 112 0
108 112 -113 0
108 112 -113 0
-108 -112 113 0
108 -112 113 0
-108 113 0
-111 -114 0
111 113 -114 0
-111 113 -114 0
111 -113 114 0
111 -113 114 0
16 -32 115 0
-16 -115 0
32 -115 0
111 115 -116 0
111 115 -116 0
-111 -115 116 0
111 -115 116 0
-111 116 0
-114 -117 0
114 116 -117 0
-114 116 -117 0
114 -116 117 0
114 -116 117 0
-32 -118 0
16 32 -118 0
16 -32 -118 0
-16 32 118 0
-16 32 118 0
114 118 -119 0
114 118 -119 0
-114 -118 119 0
114 -118 119 0
-114 119 0
-117 -120 0
117 119 -120 0
-117 119 -120 0
117 -119 120 0
117 -119 120 0
17 -33 121 0
-17 -121 0
33 -121 0
117 121 -122 0
117 121 -122 0
-117 -121 122 0
117 -121 122 0
-117 122 0
-120 -123 0
120 122 -123 0
-120 122 -123 0
120 -122 123 0
120 -122 123 0
-18 123 -124 0
18 -123 -124 0
18 123 124 0
-18 -123 124 0

